NAME : problems/40-tsp/instance-35.tsp
COMMENT : No Comment
TYPE : TSP
DIMENSION: 40
EDGE_WEIGHT_TYPE : EUC_2D
NODE_COORD_SECTION
1 7977 1594 
2 8598 7575 
3 9600 3571 
4 3774 7656 
5 7913 4394 
6 5259 8794 
7 2081 2355 
8 9401 4270 
9 2984 3379 
10 3867 8229 
11 6652 1344 
12 5197 6101 
13 4968 8719 
14 4293 9603 
15 9911 6602 
16 7757 5432 
17 4694 3817 
18 6139 3432 
19 849 334 
20 1267 4683 
21 9644 1026 
22 4047 8930 
23 4524 7821 
24 3200 1656 
25 9975 2071 
26 9105 9473 
27 6568 7624 
28 8945 9100 
29 4012 138 
30 1436 8377 
31 3630 6269 
32 3191 2137 
33 8958 9211 
34 9388 7994 
35 7212 7731 
36 4511 588 
37 153 7099 
38 5510 4215 
39 5984 2245 
40 3233 3019 
EOF
